p cnf 12 32
8 12 6 0
7 -2 9 0
8 -12 -6 0
-8 12 -6 0
6 -11 -7 0
-10 1 -3 0
11 7 6 0
11 -7 -6 0
-3 -12 -5 0
3 -10 -1 0
-12 -8 6 0
-2 -7 -9 0
-9 7 2 0
-6 7 -11 0
12 -3 5 0
-1 -3 10 0
-5 -4 11 0
5 4 11 0
8 -9 -10 0
1 -4 2 0
9 8 10 0
12 -5 3 0
5 3 -12 0
-10 9 -8 0
10 1 3 0
9 -7 2 0
-5 4 -11 0
2 -1 4 0
-4 -11 5 0
4 -2 1 0
-8 10 -9 0
-1 -2 -4 0
